1409
20 28 99 39 90 87 86 81 26 97 79 60 37 73 93 10 23 58 66 7 13 6 8 12 9 30 21 16 51 15 17 74 4 69 45 78 36 96 62 42 38 3 32 84 83 82 50 88 65 44 48 68 61 5 27 2 35 52 77 80 70 71 95 41 31 54 40 19 59 75 53 56 29 22 92 33 85 46 76 47 34 25 11 98 72 43 63 49 64 91 67 1 24 14 89 94 55 18 57 
